\ Model qp
\ LP format - for model browsing. Use MPS format to capture full model detail.
Maximize
  IS0 + IS1
Subject To
 Predicate-C-0.1: IS0 <= -9.946e-14
 Predicate-C-1.1: IS1 <= 0
Bounds
 IS0 free
 IS1 free
End
